JulietBench/Juliet_Based_Patch_Bench/linux/CWE-190-Integer-Overflow-or-Wraparound/CVE_2017_5576_0f2ff82e11c86c05d051cae32b58226392d33bbf/Resultvc4_get_bcl_SnippetEQ.smt2
; benchmark generated from python API
(set-info :status unknown)
(declare-fun R () (_ BitVec 32))
(declare-fun rdi () (_ BitVec 64))
(declare-fun rsi () (_ BitVec 64))
(assert
 (let (($x192 (= (_ bv4294967274 32) R)))
 (let ((?x6 ((_ extract 31 0) rdi)))
 (let ((?x23 (bvadd (_ bv15 32) ?x6)))
 (let ((?x30 ((_ extract 31 4) ?x23)))
 (let ((?x37 (concat (_ bv0 4) ?x30)))
 (let ((?x38 (bvmul (_ bv16 32) ?x37)))
 (let (($x102 (bvult ?x38 ?x6)))
 (let (($x614 (and $x102 $x192)))
 (let (($x18 (bvuge ?x38 ?x6)))
 (let ((?x8 ((_ extract 31 0) rsi)))
 (let ((?x24 (bvadd ?x8 ?x38)))
 (let (($x32 (bvult ?x24 ?x38)))
 (let (($x146 (and $x32 $x18 $x192)))
 (let (($x76 (= (_ bv0 32) R)))
 (let (($x78 (bvuge ?x24 ?x38)))
 (let (($x378 (and $x78 $x18 $x76)))
 (let (($x615 (or $x378 $x146 $x614)))
 (let (($x713 (and $x32 $x192)))
 (let (($x130 (and $x78 $x76)))
 (let (($x376 (or $x130 $x713)))
 (and $x376 $x615))))))))))))))))))))))
(check-sat)
